(declare-const a Real)
(declare-const b Real)
(declare-const c Real)
(assert (= (* a b c) 1))
(assert (> a 0))
(assert (> b 0))
(assert (> c 0))
(assert (not (<= (+ (/ 3 2) (* (/ -1 9) b c (pow a 2) (pow (+ (pow (* b (pow c 4) (+ a b)) (* 1 (pow 3 -1))) (pow (* c (pow b 4) (+ a c)) (* 1 (pow 3 -1))) (pow (* b c (pow a 3) (+ b c)) (* 1 (pow 3 -1)))) 3))) 0)))
(check-sat)
(get-model)
(exit)